TYPE : Vertex Cover
DIMENSION: 23
EDGE_DATA_SECTION:
0 4
1 3
1 16
1 22
2 6
2 8
2 9
2 11
2 15
2 16
2 17
2 19
3 4
3 15
3 16
3 20
3 22
4 11
4 12
4 17
5 6
5 10
5 11
5 17
5 22
6 7
6 15
6 16
6 18
6 20
6 21
7 13
7 15
7 20
7 21
7 22
8 13
8 19
8 21
8 22
9 11
9 12
9 14
9 21
10 15
11 15
11 16
11 17
11 18
11 21
11 22
12 13
12 14
12 18
12 19
12 21
12 22
13 17
13 20
13 22
14 15
14 21
14 22
15 17
15 18
15 21
16 19
16 21
18 20
18 22
20 22
-1
VERTEX_DEGREE:
1.0 3.0 8.0 6.0 5.0 5.0 8.0 6.0 5.0 5.0 2.0 10.0 8.0 6.0 5.0 10.0 7.0 6.0 6.0 4.0 6.0 9.0 11.0
VERTEX_COVER:
2 3 4 5 6 8 9 11 12 13 15 16 20 21 22
EOF
